NAME : eil76.tour
COMMENT : best solution found for eil76 (557.0)
TYPE : TOUR 
DIMENSION : 76
TOUR_SECTION
0
72
32
50
16
39
11
71
57
9
37
64
65
10
58
13
52
34
6
66
25
75
5
67
74
3
29
1
61
27
73
20
46
47
4
28
44
26
51
33
45
7
18
53
12
56
14
36
19
69
59
70
35
68
60
21
63
41
42
40
55
22
48
23
17
49
24
54
30
38
8
31
43
2
15
62
-1
EOF